Version identifier: 22.1.0.0 | 2022-03-09 | 1a383f8ce
CPXPARAM_Read_DataCheck                          1
Tried aggregator 3 times.
MIP Presolve eliminated 3876 rows and 943 columns.
MIP Presolve modified 108 coefficients.
Aggregator did 3107 substitutions.
Reduced MIP has 931 rows, 3258 columns, and 7433 nonzeros.
Reduced MIP has 3246 binaries, 12 generals, 0 SOSs, and 0 indicators.
Presolve time = 0.02 sec. (23.28 ticks)
Probing fixed 24 vars, tightened 0 bounds.
Probing time = 0.01 sec. (4.62 ticks)
Tried aggregator 2 times.
Detecting symmetries...
MIP Presolve eliminated 30 rows and 40 columns.
Aggregator did 10 substitutions.
Reduced MIP has 891 rows, 3208 columns, and 7323 nonzeros.
Reduced MIP has 3196 binaries, 12 generals, 0 SOSs, and 0 indicators.
Presolve time = 0.01 sec. (9.42 ticks)
Probing time = 0.00 sec. (2.74 ticks)
Clique table members: 7078.
MIP emphasis: balance optimality and feasibility.
MIP search method: dynamic search.
Parallel mode: deterministic, using up to 8 threads.
Root relaxation solution time = 0.07 sec. (15.07 ticks)

        Nodes                                         Cuts/
   Node  Left     Objective  IInf  Best Integer    Best Bound    ItCnt     Gap

      0     0       12.4357   658                     12.4357      767         
      0     0       20.0000   433                    Cuts: 85     1804         
      0     0       20.0000   495                    Cuts: 24     2244         
*     0+    0                           21.0000       20.0000             4.76%

Repeating presolve.
Tried aggregator 3 times.
MIP Presolve eliminated 162 rows and 1431 columns.
MIP Presolve modified 8 coefficients.
Aggregator did 154 substitutions.
Reduced MIP has 575 rows, 1623 columns, and 3881 nonzeros.
Reduced MIP has 1623 binaries, 0 generals, 0 SOSs, and 0 indicators.
Presolve time = 0.01 sec. (5.65 ticks)
Represolve time = 0.01 sec. (11.63 ticks)

Root node processing (before b&c):
  Real time             =    2.25 sec. (1597.03 ticks)
Parallel b&c, 8 threads:
  Real time             =    0.00 sec. (0.00 ticks)
  Sync time (average)   =    0.00 sec.
  Wait time (average)   =    0.00 sec.
                          ------------
Total (root+branch&cut) =    2.25 sec. (1597.03 ticks)
